data/lp_files/pEFS/58_0.lp
\ Model foo
\ LP format - for model browsing. Use MPS format to capture full model detail.
Minimize
  z
Subject To
 allocateEach[1]: x[1,1] + x[2,1] + x[3,1] = 1
 allocateEach[2]: x[1,2] + x[2,2] + x[3,2] = 1
 allocateEach[3]: x[1,3] + x[2,3] + x[3,3] = 1
 allocateEach[4]: x[1,4] + x[2,4] + x[3,4] = 1
 allocateEach[5]: x[1,5] + x[2,5] + x[3,5] = 1
 allocateEach[6]: x[1,6] + x[2,6] + x[3,6] = 1
 allocateEach[7]: x[1,7] + x[2,7] + x[3,7] = 1
 allocateEach[8]: x[1,8] + x[2,8] + x[3,8] = 1
 allocateEach[9]: x[1,9] + x[2,9] + x[3,9] = 1
 allocateEach[10]: x[1,10] + x[2,10] + x[3,10] = 1
 allocateEach[11]: x[1,11] + x[2,11] + x[3,11] = 1
 allocateEach[12]: x[1,12] + x[2,12] + x[3,12] = 1
 allocateEach[13]: x[1,13] + x[2,13] + x[3,13] = 1
 allocateEach[14]: x[1,14] + x[2,14] + x[3,14] = 1
 allocateEach[15]: x[1,15] + x[2,15] + x[3,15] = 1
 allocateEach[16]: x[1,16] + x[2,16] + x[3,16] = 1
 allocateEach[17]: x[1,17] + x[2,17] + x[3,17] = 1
 allocateEach[18]: x[1,18] + x[2,18] + x[3,18] = 1
 allocateAllCash: cashProportion[1] + cashProportion[2] + cashProportion[3]
   = 1
 findWorstP[1,2]: z + 0.0055789873022249 cashProportion[1]
   - 0.0055789873022249 cashProportion[2] + 0.0906139117627368 x[1,1]
   + 0.0627301332262168 x[1,2] + 0.0758407533864453 x[1,3]
   + 0.0578652562986767 x[1,4] + 0.0276494610698266 x[1,5]
   + 0.11113342706032 x[1,6] + 0.0309187476289304 x[1,7]
   + 0.105922652920042 x[1,8] + 0.0512151034344246 x[1,9]
   + 0.0373568989756979 x[1,10] + 0.0513378411550735 x[1,11]
   + 0.0121398763696414 x[1,12] + 0.0144272611635536 x[1,13]
   + 0.0573631474414764 x[1,14] + 0.0609336993149004 x[1,15]
   + 0.0084019548771507 x[1,16] + 0.071567249112941 x[1,17]
   + 0.067003637499721 x[1,18] - 0.0906139117627368 x[2,1]
   - 0.0627301332262168 x[2,2] - 0.0758407533864453 x[2,3]
   - 0.0578652562986767 x[2,4] - 0.0276494610698266 x[2,5]
   - 0.11113342706032 x[2,6] - 0.0309187476289304 x[2,7]
   - 0.105922652920042 x[2,8] - 0.0512151034344246 x[2,9]
   - 0.0373568989756979 x[2,10] - 0.0513378411550735 x[2,11]
   - 0.0121398763696414 x[2,12] - 0.0144272611635536 x[2,13]
   - 0.0573631474414764 x[2,14] - 0.0609336993149004 x[2,15]
   - 0.0084019548771507 x[2,16] - 0.071567249112941 x[2,17]
   - 0.067003637499721 x[2,18] >= 0
 findWorstP[1,3]: z + 0.0055789873022249 cashProportion[1]
   - 0.0055789873022249 cashProportion[3] + 0.0906139117627368 x[1,1]
   + 0.0627301332262168 x[1,2] + 0.0758407533864453 x[1,3]
   + 0.0578652562986767 x[1,4] + 0.0276494610698266 x[1,5]
   + 0.11113342706032 x[1,6] + 0.0309187476289304 x[1,7]
   + 0.105922652920042 x[1,8] + 0.0512151034344246 x[1,9]
   + 0.0373568989756979 x[1,10] + 0.0513378411550735 x[1,11]
   + 0.0121398763696414 x[1,12] + 0.0144272611635536 x[1,13]
   + 0.0573631474414764 x[1,14] + 0.0609336993149004 x[1,15]
   + 0.0084019548771507 x[1,16] + 0.071567249112941 x[1,17]
   + 0.067003637499721 x[1,18] - 0.0906139117627368 x[3,1]
   - 0.0627301332262168 x[3,2] - 0.0758407533864453 x[3,3]
   - 0.0578652562986767 x[3,4] - 0.0276494610698266 x[3,5]
   - 0.11113342706032 x[3,6] - 0.0309187476289304 x[3,7]
   - 0.105922652920042 x[3,8] - 0.0512151034344246 x[3,9]
   - 0.0373568989756979 x[3,10] - 0.0513378411550735 x[3,11]
   - 0.0121398763696414 x[3,12] - 0.0144272611635536 x[3,13]
   - 0.0573631474414764 x[3,14] - 0.0609336993149004 x[3,15]
   - 0.0084019548771507 x[3,16] - 0.071567249112941 x[3,17]
   - 0.067003637499721 x[3,18] >= 0
 findWorstP[2,1]: z - 0.00597671471945301 cashProportion[1]
   + 0.00597671471945301 cashProportion[2] - 0.0345573645078773 x[1,1]
   - 0.1152788735088097 x[1,2] - 0.0951971120514476 x[1,3]
   - 0.00591694757225848 x[1,4] - 0.0463793062229554 x[1,5]
   - 0.00943125582729685 x[1,6] - 0.0429367185445504 x[1,7]
   - 0.0263094981950322 x[1,8] - 0.0899854168160845 x[1,9]
   - 0.0392431088479285 x[1,10] - 0.00964641755719716 x[1,11]
   - 0.0776016639173779 x[1,12] - 0.0713739271797078 x[1,13]
   - 0.0051638815176074 x[1,14] - 0.0708838365727127 x[1,15]
   - 0.0403547777857467 x[1,16] - 0.1126491190322503 x[1,17]
   - 0.101114059623706 x[1,18] + 0.0345573645078773 x[2,1]
   + 0.1152788735088097 x[2,2] + 0.0951971120514476 x[2,3]
   + 0.00591694757225848 x[2,4] + 0.0463793062229554 x[2,5]
   + 0.00943125582729685 x[2,6] + 0.0429367185445504 x[2,7]
   + 0.0263094981950322 x[2,8] + 0.0899854168160845 x[2,9]
   + 0.0392431088479285 x[2,10] + 0.00964641755719716 x[2,11]
   + 0.0776016639173779 x[2,12] + 0.0713739271797078 x[2,13]
   + 0.0051638815176074 x[2,14] + 0.0708838365727127 x[2,15]
   + 0.0403547777857467 x[2,16] + 0.1126491190322503 x[2,17]
   + 0.101114059623706 x[2,18] >= 0
 findWorstP[2,3]: z + 0.00597671471945301 cashProportion[2]
   - 0.00597671471945301 cashProportion[3] + 0.0345573645078773 x[2,1]
   + 0.1152788735088097 x[2,2] + 0.0951971120514476 x[2,3]
   + 0.00591694757225848 x[2,4] + 0.0463793062229554 x[2,5]
   + 0.00943125582729685 x[2,6] + 0.0429367185445504 x[2,7]
   + 0.0263094981950322 x[2,8] + 0.0899854168160845 x[2,9]
   + 0.0392431088479285 x[2,10] + 0.00964641755719716 x[2,11]
   + 0.0776016639173779 x[2,12] + 0.0713739271797078 x[2,13]
   + 0.0051638815176074 x[2,14] + 0.0708838365727127 x[2,15]
   + 0.0403547777857467 x[2,16] + 0.1126491190322503 x[2,17]
   + 0.101114059623706 x[2,18] - 0.0345573645078773 x[3,1]
   - 0.1152788735088097 x[3,2] - 0.0951971120514476 x[3,3]
   - 0.00591694757225848 x[3,4] - 0.0463793062229554 x[3,5]
   - 0.00943125582729685 x[3,6] - 0.0429367185445504 x[3,7]
   - 0.0263094981950322 x[3,8] - 0.0899854168160845 x[3,9]
   - 0.0392431088479285 x[3,10] - 0.00964641755719716 x[3,11]
   - 0.0776016639173779 x[3,12] - 0.0713739271797078 x[3,13]
   - 0.0051638815176074 x[3,14] - 0.0708838365727127 x[3,15]
   - 0.0403547777857467 x[3,16] - 0.1126491190322503 x[3,17]
   - 0.101114059623706 x[3,18] >= 0
 findWorstP[3,1]: z - 0.0058317198908302 cashProportion[1]
   + 0.0058317198908302 cashProportion[3] - 0.0418717488161609 x[1,1]
   - 0.0374046513797849 x[1,2] - 0.0847582168933262 x[1,3]
   - 0.0747743124402249 x[1,4] - 0.1158762742307961 x[1,5]
   - 0.0841633814644615 x[1,6] - 0.0765588187268189 x[1,7]
   - 0.018031677902447 x[1,8] - 0.010648720520656 x[1,9]
   - 0.07452938020481 x[1,10] - 0.1086449415661667 x[1,11]
   - 0.016725372646901 x[1,12] - 0.0910214840560778 x[1,13]
   - 0.0136112342251977 x[1,14] - 0.0617345867643285 x[1,15]
   - 0.0234551774009191 x[1,16] - 0.00928409806620168 x[1,17]
   - 0.0510742028038909 x[1,18] + 0.0418717488161609 x[3,1]
   + 0.0374046513797849 x[3,2] + 0.0847582168933262 x[3,3]
   + 0.0747743124402249 x[3,4] + 0.1158762742307961 x[3,5]
   + 0.0841633814644615 x[3,6] + 0.0765588187268189 x[3,7]
   + 0.018031677902447 x[3,8] + 0.010648720520656 x[3,9]
   + 0.07452938020481 x[3,10] + 0.1086449415661667 x[3,11]
   + 0.016725372646901 x[3,12] + 0.0910214840560778 x[3,13]
   + 0.0136112342251977 x[3,14] + 0.0617345867643285 x[3,15]
   + 0.0234551774009191 x[3,16] + 0.00928409806620168 x[3,17]
   + 0.0510742028038909 x[3,18] >= 0
 findWorstP[3,2]: z - 0.0058317198908302 cashProportion[2]
   + 0.0058317198908302 cashProportion[3] - 0.0418717488161609 x[2,1]
   - 0.0374046513797849 x[2,2] - 0.0847582168933262 x[2,3]
   - 0.0747743124402249 x[2,4] - 0.1158762742307961 x[2,5]
   - 0.0841633814644615 x[2,6] - 0.0765588187268189 x[2,7]
   - 0.018031677902447 x[2,8] - 0.010648720520656 x[2,9]
   - 0.07452938020481 x[2,10] - 0.1086449415661667 x[2,11]
   - 0.016725372646901 x[2,12] - 0.0910214840560778 x[2,13]
   - 0.0136112342251977 x[2,14] - 0.0617345867643285 x[2,15]
   - 0.0234551774009191 x[2,16] - 0.00928409806620168 x[2,17]
   - 0.0510742028038909 x[2,18] + 0.0418717488161609 x[3,1]
   + 0.0374046513797849 x[3,2] + 0.0847582168933262 x[3,3]
   + 0.0747743124402249 x[3,4] + 0.1158762742307961 x[3,5]
   + 0.0841633814644615 x[3,6] + 0.0765588187268189 x[3,7]
   + 0.018031677902447 x[3,8] + 0.010648720520656 x[3,9]
   + 0.07452938020481 x[3,10] + 0.1086449415661667 x[3,11]
   + 0.016725372646901 x[3,12] + 0.0910214840560778 x[3,13]
   + 0.0136112342251977 x[3,14] + 0.0617345867643285 x[3,15]
   + 0.0234551774009191 x[3,16] + 0.00928409806620168 x[3,17]
   + 0.0510742028038909 x[3,18] >= 0
Bounds
 z <= 1
 -infinity <= cashProportion[1] <= 1
 -infinity <= cashProportion[2] <= 1
 -infinity <= cashProportion[3] <= 1
Binaries
 x[1,1] x[1,2] x[1,3] x[1,4] x[1,5] x[1,6] x[1,7] x[1,8] x[1,9] x[1,10]
 x[1,11] x[1,12] x[1,13] x[1,14] x[1,15] x[1,16] x[1,17] x[1,18] x[2,1]
 x[2,2] x[2,3] x[2,4] x[2,5] x[2,6] x[2,7] x[2,8] x[2,9] x[2,10] x[2,11]
 x[2,12] x[2,13] x[2,14] x[2,15] x[2,16] x[2,17] x[2,18] x[3,1] x[3,2]
 x[3,3] x[3,4] x[3,5] x[3,6] x[3,7] x[3,8] x[3,9] x[3,10] x[3,11] x[3,12]
 x[3,13] x[3,14] x[3,15] x[3,16] x[3,17] x[3,18]
End
