data/mps_files/q3/58_0.mps
NAME foo
ROWS
 N  OBJ
 E  allocateEach[1]
 E  allocateEach[2]
 E  allocateEach[3]
 E  allocateEach[4]
 E  allocateEach[5]
 E  allocateEach[6]
 E  allocateEach[7]
 E  allocateEach[8]
 E  allocateEach[9]
 E  allocateEach[10]
 E  allocateEach[11]
 E  allocateEach[12]
 E  allocateEach[13]
 E  allocateEach[14]
 E  allocateEach[15]
 E  allocateEach[16]
 E  allocateEach[17]
 E  allocateEach[18]
 E  allocateAllCash
 G  findWorstP[1,2]
 G  findWorstP[1,3]
 G  findWorstP[2,1]
 G  findWorstP[2,3]
 G  findWorstP[3,1]
 G  findWorstP[3,2]
COLUMNS
    z         OBJ       1
    z         findWorstP[1,2]  1
    z         findWorstP[1,3]  1
    z         findWorstP[2,1]  1
    z         findWorstP[2,3]  1
    z         findWorstP[3,1]  1
    z         findWorstP[3,2]  1
    cashProportion[1]  allocateAllCash  1
    cashProportion[1]  findWorstP[1,2]  0.0055789873022249
    cashProportion[1]  findWorstP[1,3]  0.0055789873022249
    cashProportion[1]  findWorstP[2,1]  -5.9767147194530112e-03
    cashProportion[1]  findWorstP[3,1]  -5.8317198908302030e-03
    cashProportion[2]  allocateAllCash  1
    cashProportion[2]  findWorstP[1,2]  -0.0055789873022249
    cashProportion[2]  findWorstP[2,1]  5.9767147194530112e-03
    cashProportion[2]  findWorstP[2,3]  5.9767147194530112e-03
    cashProportion[2]  findWorstP[3,2]  -5.8317198908302030e-03
    cashProportion[3]  allocateAllCash  1
    cashProportion[3]  findWorstP[1,3]  -0.0055789873022249
    cashProportion[3]  findWorstP[2,3]  -5.9767147194530112e-03
    cashProportion[3]  findWorstP[3,1]  5.8317198908302030e-03
    cashProportion[3]  findWorstP[3,2]  5.8317198908302030e-03
    MARKER    'MARKER'                 'INTORG'
    x[1,1]    allocateEach[1]  1
    x[1,1]    findWorstP[1,2]  9.0613911762736823e-02
    x[1,1]    findWorstP[1,3]  9.0613911762736823e-02
    x[1,1]    findWorstP[2,1]  -3.4557364507877310e-02
    x[1,1]    findWorstP[3,1]  -4.1871748816160854e-02
    x[1,2]    allocateEach[2]  1
    x[1,2]    findWorstP[1,2]  6.2730133226216775e-02
    x[1,2]    findWorstP[1,3]  6.2730133226216775e-02
    x[1,2]    findWorstP[2,1]  -1.1527887350880968e-01
    x[1,2]    findWorstP[3,1]  -3.7404651379784916e-02
    x[1,3]    allocateEach[3]  1
    x[1,3]    findWorstP[1,2]  7.5840753386445289e-02
    x[1,3]    findWorstP[1,3]  7.5840753386445289e-02
    x[1,3]    findWorstP[2,1]  -9.5197112051447555e-02
    x[1,3]    findWorstP[3,1]  -8.4758216893326160e-02
    x[1,4]    allocateEach[4]  1
    x[1,4]    findWorstP[1,2]  5.7865256298676657e-02
    x[1,4]    findWorstP[1,3]  5.7865256298676657e-02
    x[1,4]    findWorstP[2,1]  -5.9169475722584807e-03
    x[1,4]    findWorstP[3,1]  -7.4774312440224852e-02
    x[1,5]    allocateEach[5]  1
    x[1,5]    findWorstP[1,2]  2.7649461069826603e-02
    x[1,5]    findWorstP[1,3]  2.7649461069826603e-02
    x[1,5]    findWorstP[2,1]  -4.6379306222955365e-02
    x[1,5]    findWorstP[3,1]  -1.1587627423079613e-01
    x[1,6]    allocateEach[6]  1
    x[1,6]    findWorstP[1,2]  0.11113342706032
    x[1,6]    findWorstP[1,3]  0.11113342706032
    x[1,6]    findWorstP[2,1]  -0.00943125582729685
    x[1,6]    findWorstP[3,1]  -8.4163381464461479e-02
    x[1,7]    allocateEach[7]  1
    x[1,7]    findWorstP[1,2]  3.0918747628930397e-02
    x[1,7]    findWorstP[1,3]  3.0918747628930397e-02
    x[1,7]    findWorstP[2,1]  -4.2936718544550431e-02
    x[1,7]    findWorstP[3,1]  -0.0765588187268189
    x[1,8]    allocateEach[8]  1
    x[1,8]    findWorstP[1,2]  1.0592265292004195e-01
    x[1,8]    findWorstP[1,3]  1.0592265292004195e-01
    x[1,8]    findWorstP[2,1]  -2.6309498195032151e-02
    x[1,8]    findWorstP[3,1]  -1.8031677902446985e-02
    x[1,9]    allocateEach[9]  1
    x[1,9]    findWorstP[1,2]  5.1215103434424585e-02
    x[1,9]    findWorstP[1,3]  5.1215103434424585e-02
    x[1,9]    findWorstP[2,1]  -8.9985416816084532e-02
    x[1,9]    findWorstP[3,1]  -1.0648720520655951e-02
    x[1,10]   allocateEach[10]  1
    x[1,10]   findWorstP[1,2]  3.7356898975697925e-02
    x[1,10]   findWorstP[1,3]  3.7356898975697925e-02
    x[1,10]   findWorstP[2,1]  -3.9243108847928469e-02
    x[1,10]   findWorstP[3,1]  -0.07452938020481
    x[1,11]   allocateEach[11]  1
    x[1,11]   findWorstP[1,2]  5.1337841155073526e-02
    x[1,11]   findWorstP[1,3]  5.1337841155073526e-02
    x[1,11]   findWorstP[2,1]  -9.6464175571971591e-03
    x[1,11]   findWorstP[3,1]  -1.0864494156616668e-01
    x[1,12]   allocateEach[12]  1
    x[1,12]   findWorstP[1,2]  1.2139876369641381e-02
    x[1,12]   findWorstP[1,3]  1.2139876369641381e-02
    x[1,12]   findWorstP[2,1]  -0.0776016639173779
    x[1,12]   findWorstP[3,1]  -1.6725372646901021e-02
    x[1,13]   allocateEach[13]  1
    x[1,13]   findWorstP[1,2]  1.4427261163553591e-02
    x[1,13]   findWorstP[1,3]  1.4427261163553591e-02
    x[1,13]   findWorstP[2,1]  -7.1373927179707849e-02
    x[1,13]   findWorstP[3,1]  -0.0910214840560778
    x[1,14]   allocateEach[14]  1
    x[1,14]   findWorstP[1,2]  5.7363147441476421e-02
    x[1,14]   findWorstP[1,3]  5.7363147441476421e-02
    x[1,14]   findWorstP[2,1]  -5.1638815176074018e-03
    x[1,14]   findWorstP[3,1]  -1.3611234225197692e-02
    x[1,15]   allocateEach[15]  1
    x[1,15]   findWorstP[1,2]  6.0933699314900357e-02
    x[1,15]   findWorstP[1,3]  6.0933699314900357e-02
    x[1,15]   findWorstP[2,1]  -0.0708838365727127
    x[1,15]   findWorstP[3,1]  -6.1734586764328525e-02
    x[1,16]   allocateEach[16]  1
    x[1,16]   findWorstP[1,2]  8.4019548771506990e-03
    x[1,16]   findWorstP[1,3]  8.4019548771506990e-03
    x[1,16]   findWorstP[2,1]  -4.0354777785746733e-02
    x[1,16]   findWorstP[3,1]  -2.3455177400919073e-02
    x[1,17]   allocateEach[17]  1
    x[1,17]   findWorstP[1,2]  7.1567249112941017e-02
    x[1,17]   findWorstP[1,3]  7.1567249112941017e-02
    x[1,17]   findWorstP[2,1]  -1.1264911903225035e-01
    x[1,17]   findWorstP[3,1]  -9.2840980662016823e-03
    x[1,18]   allocateEach[18]  1
    x[1,18]   findWorstP[1,2]  6.7003637499721047e-02
    x[1,18]   findWorstP[1,3]  6.7003637499721047e-02
    x[1,18]   findWorstP[2,1]  -1.0111405962370604e-01
    x[1,18]   findWorstP[3,1]  -5.1074202803890911e-02
    x[2,1]    allocateEach[1]  1
    x[2,1]    findWorstP[1,2]  -9.0613911762736823e-02
    x[2,1]    findWorstP[2,1]  3.4557364507877310e-02
    x[2,1]    findWorstP[2,3]  3.4557364507877310e-02
    x[2,1]    findWorstP[3,2]  -4.1871748816160854e-02
    x[2,2]    allocateEach[2]  1
    x[2,2]    findWorstP[1,2]  -6.2730133226216775e-02
    x[2,2]    findWorstP[2,1]  1.1527887350880968e-01
    x[2,2]    findWorstP[2,3]  1.1527887350880968e-01
    x[2,2]    findWorstP[3,2]  -3.7404651379784916e-02
    x[2,3]    allocateEach[3]  1
    x[2,3]    findWorstP[1,2]  -7.5840753386445289e-02
    x[2,3]    findWorstP[2,1]  9.5197112051447555e-02
    x[2,3]    findWorstP[2,3]  9.5197112051447555e-02
    x[2,3]    findWorstP[3,2]  -8.4758216893326160e-02
    x[2,4]    allocateEach[4]  1
    x[2,4]    findWorstP[1,2]  -5.7865256298676657e-02
    x[2,4]    findWorstP[2,1]  5.9169475722584807e-03
    x[2,4]    findWorstP[2,3]  5.9169475722584807e-03
    x[2,4]    findWorstP[3,2]  -7.4774312440224852e-02
    x[2,5]    allocateEach[5]  1
    x[2,5]    findWorstP[1,2]  -2.7649461069826603e-02
    x[2,5]    findWorstP[2,1]  4.6379306222955365e-02
    x[2,5]    findWorstP[2,3]  4.6379306222955365e-02
    x[2,5]    findWorstP[3,2]  -1.1587627423079613e-01
    x[2,6]    allocateEach[6]  1
    x[2,6]    findWorstP[1,2]  -0.11113342706032
    x[2,6]    findWorstP[2,1]  0.00943125582729685
    x[2,6]    findWorstP[2,3]  0.00943125582729685
    x[2,6]    findWorstP[3,2]  -8.4163381464461479e-02
    x[2,7]    allocateEach[7]  1
    x[2,7]    findWorstP[1,2]  -3.0918747628930397e-02
    x[2,7]    findWorstP[2,1]  4.2936718544550431e-02
    x[2,7]    findWorstP[2,3]  4.2936718544550431e-02
    x[2,7]    findWorstP[3,2]  -0.0765588187268189
    x[2,8]    allocateEach[8]  1
    x[2,8]    findWorstP[1,2]  -1.0592265292004195e-01
    x[2,8]    findWorstP[2,1]  2.6309498195032151e-02
    x[2,8]    findWorstP[2,3]  2.6309498195032151e-02
    x[2,8]    findWorstP[3,2]  -1.8031677902446985e-02
    x[2,9]    allocateEach[9]  1
    x[2,9]    findWorstP[1,2]  -5.1215103434424585e-02
    x[2,9]    findWorstP[2,1]  8.9985416816084532e-02
    x[2,9]    findWorstP[2,3]  8.9985416816084532e-02
    x[2,9]    findWorstP[3,2]  -1.0648720520655951e-02
    x[2,10]   allocateEach[10]  1
    x[2,10]   findWorstP[1,2]  -3.7356898975697925e-02
    x[2,10]   findWorstP[2,1]  3.9243108847928469e-02
    x[2,10]   findWorstP[2,3]  3.9243108847928469e-02
    x[2,10]   findWorstP[3,2]  -0.07452938020481
    x[2,11]   allocateEach[11]  1
    x[2,11]   findWorstP[1,2]  -5.1337841155073526e-02
    x[2,11]   findWorstP[2,1]  9.6464175571971591e-03
    x[2,11]   findWorstP[2,3]  9.6464175571971591e-03
    x[2,11]   findWorstP[3,2]  -1.0864494156616668e-01
    x[2,12]   allocateEach[12]  1
    x[2,12]   findWorstP[1,2]  -1.2139876369641381e-02
    x[2,12]   findWorstP[2,1]  0.0776016639173779
    x[2,12]   findWorstP[2,3]  0.0776016639173779
    x[2,12]   findWorstP[3,2]  -1.6725372646901021e-02
    x[2,13]   allocateEach[13]  1
    x[2,13]   findWorstP[1,2]  -1.4427261163553591e-02
    x[2,13]   findWorstP[2,1]  7.1373927179707849e-02
    x[2,13]   findWorstP[2,3]  7.1373927179707849e-02
    x[2,13]   findWorstP[3,2]  -0.0910214840560778
    x[2,14]   allocateEach[14]  1
    x[2,14]   findWorstP[1,2]  -5.7363147441476421e-02
    x[2,14]   findWorstP[2,1]  5.1638815176074018e-03
    x[2,14]   findWorstP[2,3]  5.1638815176074018e-03
    x[2,14]   findWorstP[3,2]  -1.3611234225197692e-02
    x[2,15]   allocateEach[15]  1
    x[2,15]   findWorstP[1,2]  -6.0933699314900357e-02
    x[2,15]   findWorstP[2,1]  0.0708838365727127
    x[2,15]   findWorstP[2,3]  0.0708838365727127
    x[2,15]   findWorstP[3,2]  -6.1734586764328525e-02
    x[2,16]   allocateEach[16]  1
    x[2,16]   findWorstP[1,2]  -8.4019548771506990e-03
    x[2,16]   findWorstP[2,1]  4.0354777785746733e-02
    x[2,16]   findWorstP[2,3]  4.0354777785746733e-02
    x[2,16]   findWorstP[3,2]  -2.3455177400919073e-02
    x[2,17]   allocateEach[17]  1
    x[2,17]   findWorstP[1,2]  -7.1567249112941017e-02
    x[2,17]   findWorstP[2,1]  1.1264911903225035e-01
    x[2,17]   findWorstP[2,3]  1.1264911903225035e-01
    x[2,17]   findWorstP[3,2]  -9.2840980662016823e-03
    x[2,18]   allocateEach[18]  1
    x[2,18]   findWorstP[1,2]  -6.7003637499721047e-02
    x[2,18]   findWorstP[2,1]  1.0111405962370604e-01
    x[2,18]   findWorstP[2,3]  1.0111405962370604e-01
    x[2,18]   findWorstP[3,2]  -5.1074202803890911e-02
    x[3,1]    allocateEach[1]  1
    x[3,1]    findWorstP[1,3]  -9.0613911762736823e-02
    x[3,1]    findWorstP[2,3]  -3.4557364507877310e-02
    x[3,1]    findWorstP[3,1]  4.1871748816160854e-02
    x[3,1]    findWorstP[3,2]  4.1871748816160854e-02
    x[3,2]    allocateEach[2]  1
    x[3,2]    findWorstP[1,3]  -6.2730133226216775e-02
    x[3,2]    findWorstP[2,3]  -1.1527887350880968e-01
    x[3,2]    findWorstP[3,1]  3.7404651379784916e-02
    x[3,2]    findWorstP[3,2]  3.7404651379784916e-02
    x[3,3]    allocateEach[3]  1
    x[3,3]    findWorstP[1,3]  -7.5840753386445289e-02
    x[3,3]    findWorstP[2,3]  -9.5197112051447555e-02
    x[3,3]    findWorstP[3,1]  8.4758216893326160e-02
    x[3,3]    findWorstP[3,2]  8.4758216893326160e-02
    x[3,4]    allocateEach[4]  1
    x[3,4]    findWorstP[1,3]  -5.7865256298676657e-02
    x[3,4]    findWorstP[2,3]  -5.9169475722584807e-03
    x[3,4]    findWorstP[3,1]  7.4774312440224852e-02
    x[3,4]    findWorstP[3,2]  7.4774312440224852e-02
    x[3,5]    allocateEach[5]  1
    x[3,5]    findWorstP[1,3]  -2.7649461069826603e-02
    x[3,5]    findWorstP[2,3]  -4.6379306222955365e-02
    x[3,5]    findWorstP[3,1]  1.1587627423079613e-01
    x[3,5]    findWorstP[3,2]  1.1587627423079613e-01
    x[3,6]    allocateEach[6]  1
    x[3,6]    findWorstP[1,3]  -0.11113342706032
    x[3,6]    findWorstP[2,3]  -0.00943125582729685
    x[3,6]    findWorstP[3,1]  8.4163381464461479e-02
    x[3,6]    findWorstP[3,2]  8.4163381464461479e-02
    x[3,7]    allocateEach[7]  1
    x[3,7]    findWorstP[1,3]  -3.0918747628930397e-02
    x[3,7]    findWorstP[2,3]  -4.2936718544550431e-02
    x[3,7]    findWorstP[3,1]  0.0765588187268189
    x[3,7]    findWorstP[3,2]  0.0765588187268189
    x[3,8]    allocateEach[8]  1
    x[3,8]    findWorstP[1,3]  -1.0592265292004195e-01
    x[3,8]    findWorstP[2,3]  -2.6309498195032151e-02
    x[3,8]    findWorstP[3,1]  1.8031677902446985e-02
    x[3,8]    findWorstP[3,2]  1.8031677902446985e-02
    x[3,9]    allocateEach[9]  1
    x[3,9]    findWorstP[1,3]  -5.1215103434424585e-02
    x[3,9]    findWorstP[2,3]  -8.9985416816084532e-02
    x[3,9]    findWorstP[3,1]  1.0648720520655951e-02
    x[3,9]    findWorstP[3,2]  1.0648720520655951e-02
    x[3,10]   allocateEach[10]  1
    x[3,10]   findWorstP[1,3]  -3.7356898975697925e-02
    x[3,10]   findWorstP[2,3]  -3.9243108847928469e-02
    x[3,10]   findWorstP[3,1]  0.07452938020481
    x[3,10]   findWorstP[3,2]  0.07452938020481
    x[3,11]   allocateEach[11]  1
    x[3,11]   findWorstP[1,3]  -5.1337841155073526e-02
    x[3,11]   findWorstP[2,3]  -9.6464175571971591e-03
    x[3,11]   findWorstP[3,1]  1.0864494156616668e-01
    x[3,11]   findWorstP[3,2]  1.0864494156616668e-01
    x[3,12]   allocateEach[12]  1
    x[3,12]   findWorstP[1,3]  -1.2139876369641381e-02
    x[3,12]   findWorstP[2,3]  -0.0776016639173779
    x[3,12]   findWorstP[3,1]  1.6725372646901021e-02
    x[3,12]   findWorstP[3,2]  1.6725372646901021e-02
    x[3,13]   allocateEach[13]  1
    x[3,13]   findWorstP[1,3]  -1.4427261163553591e-02
    x[3,13]   findWorstP[2,3]  -7.1373927179707849e-02
    x[3,13]   findWorstP[3,1]  0.0910214840560778
    x[3,13]   findWorstP[3,2]  0.0910214840560778
    x[3,14]   allocateEach[14]  1
    x[3,14]   findWorstP[1,3]  -5.7363147441476421e-02
    x[3,14]   findWorstP[2,3]  -5.1638815176074018e-03
    x[3,14]   findWorstP[3,1]  1.3611234225197692e-02
    x[3,14]   findWorstP[3,2]  1.3611234225197692e-02
    x[3,15]   allocateEach[15]  1
    x[3,15]   findWorstP[1,3]  -6.0933699314900357e-02
    x[3,15]   findWorstP[2,3]  -0.0708838365727127
    x[3,15]   findWorstP[3,1]  6.1734586764328525e-02
    x[3,15]   findWorstP[3,2]  6.1734586764328525e-02
    x[3,16]   allocateEach[16]  1
    x[3,16]   findWorstP[1,3]  -8.4019548771506990e-03
    x[3,16]   findWorstP[2,3]  -4.0354777785746733e-02
    x[3,16]   findWorstP[3,1]  2.3455177400919073e-02
    x[3,16]   findWorstP[3,2]  2.3455177400919073e-02
    x[3,17]   allocateEach[17]  1
    x[3,17]   findWorstP[1,3]  -7.1567249112941017e-02
    x[3,17]   findWorstP[2,3]  -1.1264911903225035e-01
    x[3,17]   findWorstP[3,1]  9.2840980662016823e-03
    x[3,17]   findWorstP[3,2]  9.2840980662016823e-03
    x[3,18]   allocateEach[18]  1
    x[3,18]   findWorstP[1,3]  -6.7003637499721047e-02
    x[3,18]   findWorstP[2,3]  -1.0111405962370604e-01
    x[3,18]   findWorstP[3,1]  5.1074202803890911e-02
    x[3,18]   findWorstP[3,2]  5.1074202803890911e-02
    MARKER    'MARKER'                 'INTEND'
RHS
    RHS1      allocateEach[1]  1
    RHS1      allocateEach[2]  1
    RHS1      allocateEach[3]  1
    RHS1      allocateEach[4]  1
    RHS1      allocateEach[5]  1
    RHS1      allocateEach[6]  1
    RHS1      allocateEach[7]  1
    RHS1      allocateEach[8]  1
    RHS1      allocateEach[9]  1
    RHS1      allocateEach[10]  1
    RHS1      allocateEach[11]  1
    RHS1      allocateEach[12]  1
    RHS1      allocateEach[13]  1
    RHS1      allocateEach[14]  1
    RHS1      allocateEach[15]  1
    RHS1      allocateEach[16]  1
    RHS1      allocateEach[17]  1
    RHS1      allocateEach[18]  1
    RHS1      allocateAllCash  1
BOUNDS
 UP BND1      z         1
 MI BND1      cashProportion[1]
 UP BND1      cashProportion[1]  1
 MI BND1      cashProportion[2]
 UP BND1      cashProportion[2]  1
 MI BND1      cashProportion[3]
 UP BND1      cashProportion[3]  1
 BV BND1      x[1,1]  
 BV BND1      x[1,2]  
 BV BND1      x[1,3]  
 BV BND1      x[1,4]  
 BV BND1      x[1,5]  
 BV BND1      x[1,6]  
 BV BND1      x[1,7]  
 BV BND1      x[1,8]  
 BV BND1      x[1,9]  
 BV BND1      x[1,10] 
 BV BND1      x[1,11] 
 BV BND1      x[1,12] 
 BV BND1      x[1,13] 
 BV BND1      x[1,14] 
 BV BND1      x[1,15] 
 BV BND1      x[1,16] 
 BV BND1      x[1,17] 
 BV BND1      x[1,18] 
 BV BND1      x[2,1]  
 BV BND1      x[2,2]  
 BV BND1      x[2,3]  
 BV BND1      x[2,4]  
 BV BND1      x[2,5]  
 BV BND1      x[2,6]  
 BV BND1      x[2,7]  
 BV BND1      x[2,8]  
 BV BND1      x[2,9]  
 BV BND1      x[2,10] 
 BV BND1      x[2,11] 
 BV BND1      x[2,12] 
 BV BND1      x[2,13] 
 BV BND1      x[2,14] 
 BV BND1      x[2,15] 
 BV BND1      x[2,16] 
 BV BND1      x[2,17] 
 BV BND1      x[2,18] 
 BV BND1      x[3,1]  
 BV BND1      x[3,2]  
 BV BND1      x[3,3]  
 BV BND1      x[3,4]  
 BV BND1      x[3,5]  
 BV BND1      x[3,6]  
 BV BND1      x[3,7]  
 BV BND1      x[3,8]  
 BV BND1      x[3,9]  
 BV BND1      x[3,10] 
 BV BND1      x[3,11] 
 BV BND1      x[3,12] 
 BV BND1      x[3,13] 
 BV BND1      x[3,14] 
 BV BND1      x[3,15] 
 BV BND1      x[3,16] 
 BV BND1      x[3,17] 
 BV BND1      x[3,18] 
ENDATA
